50
    1   152   415
    2   460   464
    3   434   374
    4   374   395
    5   379   248
    6   407   437
    7   463   429
    8   145    43
    9    44   361
   10    64   378
   11     9   355
   12    57   383
   13   205   216
   14   472   184
   15   313    28
   16   426   128
   17   488   225
   18   432   440
   19   212   389
   20    39    30
   21   275    53
   22   281   223
   23   426   376
   24   458   254
   25   123   440
   26   384   116
   27   342   158
   28   121   255
   29   252   253
   30   158   395
   31   183   493
   32   134   163
   33   470   167
   34   421   313
   35   301    48
   36   139   413
   37   355   224
   38   457   148
   39   176   200
   40   317   434
   41   410   223
   42   171   157
   43   475     6
   44    33   145
   45   120   435
   46   241   294
   47   406   413
   48    98   129
   49   494   495
   50   171   152
11247
